
Gurobi 9.1.2 (linux64) logging started Wed Nov 24 10:33:23 2021

Changed value of parameter LogFile to lemke_square_v-(2, 2).log-s20-l10.log
   Prev:   Default: 
Changed value of parameter Threads to 32
   Prev: 0  Min: 0  Max: 1024  Default: 0
Changed value of parameter TimeLimit to 3600.0
   Prev: inf  Min: 0.0  Max: inf  Default: inf
Changed value of parameter MIPGap to 0.4
   Prev: 0.0001  Min: 0.0  Max: inf  Default: 0.0001
Warning: variable name "X[(7, 4),(7, 3)]" has a space
Warning: constraint name "flow-constr-t0-v(3, 0)" has a space
Warning: to let Gurobi read it back, use rlp format
Gurobi Optimizer version 9.1.2 build v9.1.2rc0 (linux64)
Thread count: 16 physical cores, 32 logical processors, using up to 32 threads
Optimize a model with 5993 rows, 5440 columns and 20630 nonzeros
Model fingerprint: 0x48dfda4b
Variable types: 0 continuous, 5440 integer (4800 binary)
Coefficient statistics:
  Matrix range     [1e+00, 1e+03]
  Objective range  [1e-01, 1e-01]
  Bounds range     [1e+00, 5e+02]
  RHS range        [1e+00, 1e+03]
Presolve removed 598 rows and 640 columns
Presolve time: 0.04s
Presolved: 5395 rows, 4800 columns, 17940 nonzeros
Variable types: 0 continuous, 4800 integer (4170 binary)

Root relaxation: objective 6.300000e+01, 119 iterations, 0.00 seconds

    Nodes    |    Current Node    |     Objective Bounds      |     Work
 Expl Unexpl |  Obj  Depth IntInf | Incumbent    BestBd   Gap | It/Node Time

     0     0   63.00000    0   52          -   63.00000      -     -    0s
H    0     0                     265.1000000   63.00000  76.2%     -    0s
     0     0   63.00000    0   80  265.10000   63.00000  76.2%     -    0s
H    0     0                     214.7000000   63.00000  70.7%     -    0s
     0     0   63.00000    0   82  214.70000   63.00000  70.7%     -    0s
H    0     0                     206.9000000   63.00000  69.6%     -    0s
H    0     0                     197.4000000   63.00000  68.1%     -    0s
H    0     0                     166.2000000   63.00000  62.1%     -    0s
     0     0   63.00000    0   52  166.20000   63.00000  62.1%     -    0s
     0     0   63.00000    0   62  166.20000   63.00000  62.1%     -    0s
     0     0   63.00000    0   48  166.20000   63.00000  62.1%     -    0s
     0     0   63.00000    0   46  166.20000   63.00000  62.1%     -    0s
     0     2   63.00000    0   36  166.20000   63.00000  62.1%     -    0s
H   31    64                     147.0000000   63.00000  57.1%  44.8    1s
H   32    64                     141.4000000   63.00000  55.4%  45.4    1s
H   33    64                     125.6000000   63.00000  49.8%  45.2    1s
H   35    64                     122.9000000   63.00000  48.7%  45.1    1s
H   39    64                     122.7000000   63.00000  48.7%  45.3    1s
H   40    64                     118.4000000   63.00000  46.8%  45.8    1s
H   48    64                     114.9000000   63.00000  45.2%  46.0    1s
H   95   128                     111.5000000   63.00000  43.5%  43.6    3s
H   96   128                     107.3000000   63.00000  41.3%  43.7    3s
H  124   128                     106.1000000   63.00000  40.6%  35.6    3s
  9241 10250   69.20000   64   83  106.10000   63.00000  40.6%   8.6    5s
H11379 10087                      99.5000000   63.00000  36.7%   8.3    5s

Explored 11380 nodes (96648 simplex iterations) in 5.72 seconds
Thread count was 32 (of 32 available processors)

Solution count 10: 99.5 106.1 107.3 ... 141.4

Optimal solution found (tolerance 4.00e-01)
Best objective 9.950000000000e+01, best bound 6.300000000000e+01, gap 36.6834%

Gurobi 9.1.2 (linux64) logging started Wed Nov 24 12:43:37 2021

Changed value of parameter LogFile to lemke_square_v-(2, 2).log-s20-l10.log
   Prev:   Default: 
Changed value of parameter Threads to 32
   Prev: 0  Min: 0  Max: 1024  Default: 0
Changed value of parameter TimeLimit to 3600.0
   Prev: inf  Min: 0.0  Max: inf  Default: inf
Changed value of parameter MIPGap to 0.3
   Prev: 0.0001  Min: 0.0  Max: inf  Default: 0.0001
Warning: variable name "X[(7, 4),(7, 3)]" has a space
Warning: constraint name "flow-constr-t0-v(3, 0)" has a space
Warning: to let Gurobi read it back, use rlp format
Gurobi Optimizer version 9.1.2 build v9.1.2rc0 (linux64)
Thread count: 16 physical cores, 32 logical processors, using up to 32 threads
Optimize a model with 5993 rows, 5440 columns and 20630 nonzeros
Model fingerprint: 0x48dfda4b
Variable types: 0 continuous, 5440 integer (4800 binary)
Coefficient statistics:
  Matrix range     [1e+00, 1e+03]
  Objective range  [1e-01, 1e-01]
  Bounds range     [1e+00, 5e+02]
  RHS range        [1e+00, 1e+03]
Presolve removed 598 rows and 640 columns
Presolve time: 0.04s
Presolved: 5395 rows, 4800 columns, 17940 nonzeros
Variable types: 0 continuous, 4800 integer (4170 binary)

Root relaxation: objective 6.300000e+01, 119 iterations, 0.00 seconds

    Nodes    |    Current Node    |     Objective Bounds      |     Work
 Expl Unexpl |  Obj  Depth IntInf | Incumbent    BestBd   Gap | It/Node Time

     0     0   63.00000    0   52          -   63.00000      -     -    0s
H    0     0                     265.1000000   63.00000  76.2%     -    0s
     0     0   63.00000    0   80  265.10000   63.00000  76.2%     -    0s
H    0     0                     214.7000000   63.00000  70.7%     -    0s
     0     0   63.00000    0   82  214.70000   63.00000  70.7%     -    0s
H    0     0                     206.9000000   63.00000  69.6%     -    0s
H    0     0                     197.4000000   63.00000  68.1%     -    0s
H    0     0                     166.2000000   63.00000  62.1%     -    0s
     0     0   63.00000    0   52  166.20000   63.00000  62.1%     -    0s
     0     0   63.00000    0   62  166.20000   63.00000  62.1%     -    0s
     0     0   63.00000    0   48  166.20000   63.00000  62.1%     -    0s
     0     0   63.00000    0   46  166.20000   63.00000  62.1%     -    0s
     0     2   63.00000    0   36  166.20000   63.00000  62.1%     -    0s
H   31    64                     147.0000000   63.00000  57.1%  44.8    1s
H   32    64                     141.4000000   63.00000  55.4%  45.4    1s
H   33    64                     125.6000000   63.00000  49.8%  45.2    1s
H   35    64                     122.9000000   63.00000  48.7%  45.1    1s
H   39    64                     122.7000000   63.00000  48.7%  45.3    1s
H   40    64                     118.4000000   63.00000  46.8%  45.8    1s
H   48    64                     114.9000000   63.00000  45.2%  46.0    1s
H   95   128                     111.5000000   63.00000  43.5%  43.6    3s
H   96   128                     107.3000000   63.00000  41.3%  43.7    3s
H  124   128                     106.1000000   63.00000  40.6%  35.6    3s
  9241 10250   69.20000   64   83  106.10000   63.00000  40.6%   8.6    5s
H11379 10087                      99.5000000   63.00000  36.7%   8.3    5s
H11382  9575                      98.5000000   63.00000  36.0%   8.3    6s
H11384  9099                      97.5000000   63.00000  35.4%   8.3    6s
H11386  8644                      96.8000000   63.00000  34.9%   8.3    6s
H11388  8213                      93.4000000   63.00000  32.5%   8.3    7s
H11392  7805                      93.0000000   63.00000  32.3%   8.3    7s
H11393  7415                      92.3000000   63.00000  31.7%   8.3    7s
H11399  7050                      92.1000000   63.00000  31.6%   9.2    9s
H11400  6698                      90.6000000   63.00000  30.5%   9.3    9s
H11401  6363                      90.0000000   63.00000  30.0%   9.3    9s

Cutting planes:
  Gomory: 4
  Cover: 157
  Implied bound: 193
  Projected implied bound: 12
  Clique: 38
  MIR: 37
  Flow cover: 38
  GUB cover: 1
  Zero half: 1
  RLT: 16
  Relax-and-lift: 54

Explored 11402 nodes (107827 simplex iterations) in 9.41 seconds
Thread count was 32 (of 32 available processors)

Solution count 10: 90 90.6 92.1 ... 99.5

Optimal solution found (tolerance 3.00e-01)
Best objective 9.000000000000e+01, best bound 6.300000000000e+01, gap 30.0000%
